clingo version 5.5.2
Reading from stdin
Solving...
UNSATISFIABLE

Models       : 0
Calls        : 1
Time         : 3.786s (Solving: 0.01s 1st Model: 0.00s Unsat: 0.01s)
CPU Time     : 3.484s

Choices      : 4409    
Conflicts    : 33       (Analyzed: 32)
Restarts     : 0       
Stab. Tests  : 36       (Full: 13 Partial: 23)
Problems     : 1        (Average Length: 0.00 Splits: 0)
Lemmas       : 32       (Deleted: 0)
  Binary     : 9        (Ratio:  28.12%)
  Ternary    : 4        (Ratio:  12.50%)
  Conflict   : 32       (Average Length:    3.7 Ratio: 100.00%) 
  Loop       : 0        (Average Length:    0.0 Ratio:   0.00%) 
  Other      : 0        (Average Length:    0.0 Ratio:   0.00%) 
Backjumps    : 32       (Average:  4.12 Max:  28 Sum:    132)
  Executed   : 32       (Average:  4.12 Max:  28 Sum:    132 Ratio: 100.00%)
  Bounded    : 0        (Average:  0.00 Max:   0 Sum:      0 Ratio:   0.00%)

Rules        : 130857   (Original: 128909)
  Choice     : 104     
Atoms        : 2167    
Disjunctions : 15       (Original: 831)
Bodies       : 20628    (Original: 18814)
  Count      : 0        (Original: 80)
Equivalences : 2876     (Atom=Atom: 44 Body=Body: 43 Other: 2789)
Tight        : No       (SCCs: 1 Non-Hcfs: 1 Nodes: 252 Gammas: 0)
Variables    : 4111     (Eliminated:    0 Frozen:  302)
Constraints  : 28405    (Binary:  34.4% Ternary:  65.2% Other:   0.4%)

